WARNING: for repeatability, setting FPU to use double precision
============================[ Problem Statistics ]=============================
|                                                                             |
|  Number of variables:           100                                         |
|  Number of clauses:             449                                         |
|  Parse time:                   0.00 s                                       |
|  Eliminated clauses:           0.00 Mb                                      |
|  Simplification time:          0.00 s                                       |
|                                                                             |
============================[ Search Statistics ]==============================
| Conflicts |          ORIGINAL         |          LEARNT          | Progress |
|           |    Vars  Clauses Literals |    Limit  Clauses Lit/Cl |          |
===============================================================================
|       100 |      98      444     1336 |      162      100      7 |  0.010 % |
===============================================================================
restarts              : 2
conflicts             : 170            (54575 /sec)
decisions             : 239            (0.00 % random) (76726 /sec)
propagations          : 4396           (1411236 /sec)
conflict literals     : 1269           (16.57 % deleted)
Memory used           : 13.00 MB
CPU time              : 0.003115 s

SATISFIABLE
